Minimize
  obj: x0 + x1 + x2 + x3 + x4 + x5 + x6 + x7 + x8 + x9 + x10 + x11 + x12

Subject To
  c0: x0 + x3 + x5 + x6 + x7 + x8 + x11 = 285
  c1: x0 + x1 + x2 + x6 + x7 + x8 + x9 = 105
  c2: x0 + x1 + x3 + x6 + x7 + x9 + x12 = 96
  c3: x0 + x1 + x2 + x4 + x5 + x6 = 252
  c4: x1 + x2 + x4 + x5 + x7 + x8 + x9 + x10 + x12 = 301
  c5: x1 + x3 + x4 + x5 + x6 + x9 + x11 = 277
  c6: x0 + x1 + x6 + x7 + x8 + x9 + x11 = 106
  c7: x0 + x3 + x5 + x6 + x8 + x11 + x12 = 272
  c8: x1 + x5 + x7 + x8 + x11 = 246
  c9: x0 + x1 + x5 + x6 + x10 = 249

Bounds
  x0 >= 0
  x1 >= 0
  x2 >= 0
  x3 >= 0
  x4 >= 0
  x5 >= 0
  x6 >= 0
  x7 >= 0
  x8 >= 0
  x9 >= 0
  x10 >= 0
  x11 >= 0
  x12 >= 0

Generals
  x0 x1 x2 x3 x4 x5 x6 x7 x8 x9 x10 x11 x12

End
